c Random generated cnf formula, satisfiable: true
p cnf 10 50
-9 5 8 0
2 -1 -7 0
-1 6 -3 0
-1 -3 4 0
-2 5 8 0
-8 1 2 0
-1 -6 4 0
-2 -5 4 0
2 -7 5 0
-3 1 6 0
-2 1 -9 0
-2 6 4 0
6 2 4 0
2 6 1 0
4 -9 10 0
-7 3 2 0
-3 9 4 0
5 1 10 0
-4 -6 -10 0
-2 6 3 0
-9 -8 -1 0
9 -3 6 0
-9 2 -6 0
8 2 4 0
6 -4 10 0
8 -2 -9 0
9 5 -7 0
-7 -9 -2 0
6 5 -7 0
-9 3 8 0
4 -5 -10 0
-9 -7 -5 0
10 2 9 0
1 -6 -3 0
-7 5 4 0
2 -5 8 0
7 5 -6 0
9 8 -6 0
-2 -7 3 0
6 10 -5 0
-1 -7 5 0
8 -6 -9 0
-10 -2 -4 0
8 -4 2 0
7 5 2 0
-1 -2 6 0
-6 -9 -10 0
-8 3 -9 0
-2 5 10 0
-7 6 -10 0
